(set-info :source |printed by MathSAT|)
(declare-fun call_mesi.ite5.next () Int)
(declare-fun call_Sofar.Sofar.next () Bool)
(declare-fun call_mesi.ite12.next () Int)
(declare-fun call_mesi.garde_me1.next () Bool)
(declare-fun env () Bool)
(declare-fun call_mesi.ite28.next () Int)
(declare-fun call_excludes4.excludes () Bool)
(declare-fun call_mesi.shared_me.next () Int)
(declare-fun call_mesi.ite23.next () Int)
(declare-fun call_mesi.ite22.next () Int)
(declare-fun call_mesi.ite2 () Int)
(declare-fun call_mesi.ite3 () Int)
(declare-fun param_etat_me3.next () Bool)
(declare-fun call_mesi.ite17.next () Int)
(declare-fun call_mesi.ite32.next () Int)
(declare-fun call_mesi.ite29.next () Int)
(declare-fun call_mesi.ite13 () Int)
(declare-fun call_mesi.ite25 () Int)
(declare-fun param_etat_me3 () Bool)
(declare-fun call_mesi.ite19.next () Int)
(declare-fun call_mesi.ite6.next () Int)
(declare-fun call_mesi.ite24 () Int)
(declare-fun call_mesi.flby2.next () Int)
(declare-fun call_mesi.garde_me3.next () Bool)
(declare-fun call_mesi.flby () Int)
(declare-fun call_mesi.ite21 () Int)
(declare-fun call_mesi.ite13.next () Int)
(declare-fun call_mesi.ite29 () Int)
(declare-fun call_mesi.shared_me () Int)
(declare-fun call_Sofar.Sofar () Bool)
(declare-fun call_mesi.ite14.next () Int)
(declare-fun param_etat_me4 () Bool)
(declare-fun call_mesi.garde_me2.next () Bool)
(declare-fun call_mesi.ite27 () Int)
(declare-fun call_mesi.ite2.next () Int)
(declare-fun call_mesi.ite15 () Int)
(declare-fun call_mesi.ite24.next () Int)
(declare-fun call_mesi.flby2 () Int)
(declare-fun call_mesi.ite10.next () Int)
(declare-fun call_mesi.ite22 () Int)
(declare-fun call_mesi.flby3 () Int)
(declare-fun call_mesi.ite () Int)
(declare-fun call_mesi.ite32 () Int)
(declare-fun exclusive_me.next () Int)
(declare-fun call_mesi.ite4.next () Int)
(declare-fun call_mesi.ite26.next () Int)
(declare-fun call_mesi.invalid_me () Int)
(declare-fun call_mesi.ite19 () Int)
(declare-fun call_mesi.ite18.next () Int)
(declare-fun param_etat_me4.next () Bool)
(declare-fun call_mesi.garde_me4.next () Bool)
(declare-fun flby () Bool)
(declare-fun exclusive_me () Int)
(declare-fun call_mesi.ite7.next () Int)
(declare-fun call_mesi.ite26 () Int)
(declare-fun call_mesi.ite9 () Int)
(declare-fun call_mesi.flby.next () Int)
(declare-fun call_mesi.ite8.next () Int)
(declare-fun call_mesi.ite5 () Int)
(declare-fun call_mesi.flby4 () Int)
(declare-fun call_mesi.invalid_me.next () Int)
(declare-fun invalid_me () Int)
(declare-fun shared_me.next () Int)
(declare-fun call_mesi.exclusive_me.next () Int)
(declare-fun call_mesi.ite23 () Int)
(declare-fun call_mesi.ite18 () Int)
(declare-fun call_mesi.ite11 () Int)
(declare-fun call_mesi.ite27.next () Int)
(declare-fun call_mesi.ite3.next () Int)
(declare-fun call_mesi.exclusive_me () Int)
(declare-fun call_mesi.ite30 () Int)
(declare-fun modified_me.next () Int)
(declare-fun call_mesi.ite11.next () Int)
(declare-fun call_mesi.ite16.next () Int)
(declare-fun call_Sofar.flby () Bool)
(declare-fun call_mesi.flby4.next () Int)
(declare-fun invalid_me.next () Int)
(declare-fun call_mesi.ite8 () Int)
(declare-fun param_etat_me2 () Bool)
(declare-fun call_mesi.ite16 () Int)
(declare-fun call_Sofar.flby.next () Bool)
(declare-fun call_mesi.ite10 () Int)
(declare-fun call_mesi.ite25.next () Int)
(declare-fun flby.next () Bool)
(declare-fun param_etat_me1.next () Bool)
(declare-fun call_mesi.modified_me () Int)
(declare-fun call_mesi.ite21.next () Int)
(declare-fun shared_me () Int)
(declare-fun modified_me () Int)
(declare-fun call_mesi.modified_me.next () Int)
(declare-fun _OK_ () Bool)
(declare-fun call_mesi.ite14 () Int)
(declare-fun call_excludes4.excludes.next () Bool)
(declare-fun call_mesi.ite9.next () Int)
(declare-fun call_mesi.ite17 () Int)
(declare-fun call_mesi.ite.next () Int)
(declare-fun call_mesi.ite20.next () Int)
(declare-fun call_mesi.flby3.next () Int)
(declare-fun call_mesi.ite6 () Int)
(declare-fun param_etat_me2.next () Bool)
(declare-fun call_mesi.ite31 () Int)
(declare-fun param_etat_me1 () Bool)
(declare-fun call_mesi.ite31.next () Int)
(declare-fun call_mesi.ite30.next () Int)
(declare-fun call_mesi.ite15.next () Int)
(declare-fun env.next () Bool)
(declare-fun _OK_.next () Bool)
(declare-fun call_mesi.ite7 () Int)
(define-fun .def_1188 () Bool (= call_Sofar.flby.next call_Sofar.Sofar.next))
(define-fun .def_1183 () Bool (and param_etat_me4.next param_etat_me3.next))
(define-fun .def_1178 () Bool (and param_etat_me1.next param_etat_me2.next))
(define-fun .def_1177 () Bool (and param_etat_me3.next param_etat_me1.next))
(define-fun .def_1179 () Bool (or .def_1177 .def_1178))
(define-fun .def_1176 () Bool (and param_etat_me4.next param_etat_me1.next))
(define-fun .def_1180 () Bool (or .def_1176 .def_1179))
(define-fun .def_1175 () Bool (and param_etat_me3.next param_etat_me2.next))
(define-fun .def_1181 () Bool (or .def_1175 .def_1180))
(define-fun .def_1174 () Bool (and param_etat_me4.next param_etat_me2.next))
(define-fun .def_1182 () Bool (or .def_1174 .def_1181))
(define-fun .def_1184 () Bool (or .def_1182 .def_1183))
(define-fun .def_1185 () Bool (not .def_1184))
(define-fun .def_1186 () Bool (= call_excludes4.excludes.next .def_1185))
(define-fun .def_1172 () Bool (= call_mesi.flby4.next call_mesi.invalid_me.next))
(define-fun .def_1170 () Bool (= call_mesi.flby3.next call_mesi.shared_me.next))
(define-fun .def_1168 () Bool (= call_mesi.flby2.next call_mesi.exclusive_me.next))
(define-fun .def_1166 () Bool (= call_mesi.flby.next call_mesi.modified_me.next))
(define-fun .def_1162 () Bool (= call_mesi.ite30.next call_mesi.ite31.next))
(define-fun .def_1163 () Bool (or param_etat_me2.next .def_1162))
(define-fun .def_1159 () Bool (= call_mesi.ite26.next call_mesi.ite31.next))
(define-fun .def_1144 () Bool (not param_etat_me2.next))
(define-fun .def_1160 () Bool (or .def_1144 .def_1159))
(define-fun .def_1156 () Bool (= call_mesi.ite22.next call_mesi.ite23.next))
(define-fun .def_1157 () Bool (or param_etat_me2.next .def_1156))
(define-fun .def_1153 () Bool (= call_mesi.ite18.next call_mesi.ite23.next))
(define-fun .def_1154 () Bool (or .def_1144 .def_1153))
(define-fun .def_1150 () Bool (= call_mesi.ite14.next call_mesi.ite15.next))
(define-fun .def_1151 () Bool (or param_etat_me2.next .def_1150))
(define-fun .def_1147 () Bool (= call_mesi.ite10.next call_mesi.ite15.next))
(define-fun .def_1148 () Bool (or .def_1144 .def_1147))
(define-fun .def_1143 () Bool (= call_mesi.ite2.next call_mesi.ite7.next))
(define-fun .def_1145 () Bool (or .def_1143 .def_1144))
(define-fun .def_1140 () Bool (= call_mesi.ite6.next call_mesi.ite7.next))
(define-fun .def_1142 () Bool (or .def_1140 param_etat_me2.next))
(define-fun .def_1146 () Bool (and .def_1142 .def_1145))
(define-fun .def_1149 () Bool (and .def_1146 .def_1148))
(define-fun .def_1152 () Bool (and .def_1149 .def_1151))
(define-fun .def_1155 () Bool (and .def_1152 .def_1154))
(define-fun .def_1158 () Bool (and .def_1155 .def_1157))
(define-fun .def_1161 () Bool (and .def_1158 .def_1160))
(define-fun .def_1164 () Bool (and .def_1161 .def_1163))
(define-fun .def_1136 () Bool (= call_mesi.ite32.next call_mesi.ite31.next))
(define-fun .def_1137 () Bool (or param_etat_me1.next .def_1136))
(define-fun .def_1132 () Bool (= call_mesi.ite25.next call_mesi.ite32.next))
(define-fun .def_1115 () Bool (not param_etat_me1.next))
(define-fun .def_1133 () Bool (or .def_1115 .def_1132))
(define-fun .def_1129 () Bool (= call_mesi.ite24.next call_mesi.ite23.next))
(define-fun .def_1130 () Bool (or param_etat_me1.next .def_1129))
(define-fun .def_1125 () Bool (= call_mesi.ite17.next call_mesi.ite24.next))
(define-fun .def_1126 () Bool (or .def_1115 .def_1125))
(define-fun .def_1122 () Bool (= call_mesi.ite16.next call_mesi.ite15.next))
(define-fun .def_1123 () Bool (or param_etat_me1.next .def_1122))
(define-fun .def_1118 () Bool (= call_mesi.ite9.next call_mesi.ite16.next))
(define-fun .def_1119 () Bool (or .def_1115 .def_1118))
(define-fun .def_1114 () Bool (= call_mesi.ite.next call_mesi.ite8.next))
(define-fun .def_1116 () Bool (or .def_1114 .def_1115))
(define-fun .def_1111 () Bool (= call_mesi.ite8.next call_mesi.ite7.next))
(define-fun .def_1113 () Bool (or .def_1111 param_etat_me1.next))
(define-fun .def_1117 () Bool (and .def_1113 .def_1116))
(define-fun .def_1120 () Bool (and .def_1117 .def_1119))
(define-fun .def_1124 () Bool (and .def_1120 .def_1123))
(define-fun .def_1127 () Bool (and .def_1124 .def_1126))
(define-fun .def_1131 () Bool (and .def_1127 .def_1130))
(define-fun .def_1134 () Bool (and .def_1131 .def_1133))
(define-fun .def_1138 () Bool (and .def_1134 .def_1137))
(define-fun .def_1108 () Bool (= env.next call_Sofar.Sofar.next))
(define-fun .def_1105 () Bool (= invalid_me.next call_mesi.invalid_me.next))
(define-fun .def_1102 () Bool (= shared_me.next call_mesi.shared_me.next))
(define-fun .def_1099 () Bool (= exclusive_me.next call_mesi.exclusive_me.next))
(define-fun .def_1096 () Bool (= modified_me.next call_mesi.modified_me.next))
(define-fun .def_1091 () Bool (= call_mesi.ite29.next call_mesi.ite30.next))
(define-fun .def_1092 () Bool (or param_etat_me3.next .def_1091))
(define-fun .def_1088 () Bool (= call_mesi.ite27.next call_mesi.ite30.next))
(define-fun .def_1070 () Bool (not param_etat_me3.next))
(define-fun .def_1089 () Bool (or .def_1070 .def_1088))
(define-fun .def_1084 () Bool (= call_mesi.ite21.next call_mesi.ite22.next))
(define-fun .def_1085 () Bool (or param_etat_me3.next .def_1084))
(define-fun .def_1081 () Bool (= call_mesi.ite19.next call_mesi.ite22.next))
(define-fun .def_1082 () Bool (or .def_1070 .def_1081))
(define-fun .def_1077 () Bool (= call_mesi.ite13.next call_mesi.ite14.next))
(define-fun .def_1078 () Bool (or param_etat_me3.next .def_1077))
(define-fun .def_1074 () Bool (= call_mesi.ite11.next call_mesi.ite14.next))
(define-fun .def_1075 () Bool (or .def_1070 .def_1074))
(define-fun .def_1069 () Bool (= call_mesi.ite3.next call_mesi.ite6.next))
(define-fun .def_1071 () Bool (or .def_1069 .def_1070))
(define-fun .def_1066 () Bool (= call_mesi.ite5.next call_mesi.ite6.next))
(define-fun .def_1068 () Bool (or .def_1066 param_etat_me3.next))
(define-fun .def_1072 () Bool (and .def_1068 .def_1071))
(define-fun .def_1076 () Bool (and .def_1072 .def_1075))
(define-fun .def_1079 () Bool (and .def_1076 .def_1078))
(define-fun .def_1083 () Bool (and .def_1079 .def_1082))
(define-fun .def_1086 () Bool (and .def_1083 .def_1085))
(define-fun .def_1090 () Bool (and .def_1086 .def_1089))
(define-fun .def_1093 () Bool (and .def_1090 .def_1092))
(define-fun .def_1062 () Bool (not env.next))
(define-fun .def_1063 () Bool (or flby.next .def_1062))
(define-fun .def_1064 () Bool (= _OK_.next .def_1063))
(define-fun .def_1094 () Bool (and .def_1064 .def_1093))
(define-fun .def_1097 () Bool (and .def_1094 .def_1096))
(define-fun .def_1100 () Bool (and .def_1097 .def_1099))
(define-fun .def_1103 () Bool (and .def_1100 .def_1102))
(define-fun .def_1106 () Bool (and .def_1103 .def_1105))
(define-fun .def_1109 () Bool (and .def_1106 .def_1108))
(define-fun .def_1139 () Bool (and .def_1109 .def_1138))
(define-fun .def_1165 () Bool (and .def_1139 .def_1164))
(define-fun .def_1167 () Bool (and .def_1165 .def_1166))
(define-fun .def_1169 () Bool (and .def_1167 .def_1168))
(define-fun .def_1171 () Bool (and .def_1169 .def_1170))
(define-fun .def_1173 () Bool (and .def_1171 .def_1172))
(define-fun .def_1187 () Bool (and .def_1173 .def_1186))
(define-fun .def_1189 () Bool (and .def_1187 .def_1188))
(define-fun .def_820 () Bool (= call_Sofar.flby call_Sofar.Sofar))
(define-fun .def_815 () Bool (and param_etat_me4 param_etat_me3))
(define-fun .def_810 () Bool (and param_etat_me1 param_etat_me2))
(define-fun .def_809 () Bool (and param_etat_me3 param_etat_me1))
(define-fun .def_811 () Bool (or .def_809 .def_810))
(define-fun .def_808 () Bool (and param_etat_me4 param_etat_me1))
(define-fun .def_812 () Bool (or .def_808 .def_811))
(define-fun .def_807 () Bool (and param_etat_me3 param_etat_me2))
(define-fun .def_813 () Bool (or .def_807 .def_812))
(define-fun .def_806 () Bool (and param_etat_me4 param_etat_me2))
(define-fun .def_814 () Bool (or .def_806 .def_813))
(define-fun .def_816 () Bool (or .def_814 .def_815))
(define-fun .def_817 () Bool (not .def_816))
(define-fun .def_818 () Bool (= call_excludes4.excludes .def_817))
(define-fun .def_804 () Bool (= call_mesi.flby4 call_mesi.invalid_me))
(define-fun .def_802 () Bool (= call_mesi.flby3 call_mesi.shared_me))
(define-fun .def_800 () Bool (= call_mesi.flby2 call_mesi.exclusive_me))
(define-fun .def_798 () Bool (= call_mesi.flby call_mesi.modified_me))
(define-fun .def_794 () Bool (= call_mesi.ite30 call_mesi.ite31))
(define-fun .def_795 () Bool (or param_etat_me2 .def_794))
(define-fun .def_791 () Bool (= call_mesi.ite31 call_mesi.ite26))
(define-fun .def_773 () Bool (not param_etat_me2))
(define-fun .def_792 () Bool (or .def_773 .def_791))
(define-fun .def_787 () Bool (= call_mesi.ite22 call_mesi.ite23))
(define-fun .def_788 () Bool (or param_etat_me2 .def_787))
(define-fun .def_784 () Bool (= call_mesi.ite23 call_mesi.ite18))
(define-fun .def_785 () Bool (or .def_773 .def_784))
(define-fun .def_780 () Bool (= call_mesi.ite14 call_mesi.ite15))
(define-fun .def_781 () Bool (or param_etat_me2 .def_780))
(define-fun .def_777 () Bool (= call_mesi.ite15 call_mesi.ite10))
(define-fun .def_778 () Bool (or .def_773 .def_777))
(define-fun .def_772 () Bool (= call_mesi.ite7 call_mesi.ite2))
(define-fun .def_774 () Bool (or .def_772 .def_773))
(define-fun .def_768 () Bool (= call_mesi.ite6 call_mesi.ite7))
(define-fun .def_770 () Bool (or .def_768 param_etat_me2))
(define-fun .def_775 () Bool (and .def_770 .def_774))
(define-fun .def_779 () Bool (and .def_775 .def_778))
(define-fun .def_782 () Bool (and .def_779 .def_781))
(define-fun .def_786 () Bool (and .def_782 .def_785))
(define-fun .def_789 () Bool (and .def_786 .def_788))
(define-fun .def_793 () Bool (and .def_789 .def_792))
(define-fun .def_796 () Bool (and .def_793 .def_795))
(define-fun .def_764 () Bool (= call_mesi.ite32 call_mesi.ite31))
(define-fun .def_765 () Bool (or param_etat_me1 .def_764))
(define-fun .def_760 () Bool (= call_mesi.ite25 call_mesi.ite32))
(define-fun .def_738 () Bool (not param_etat_me1))
(define-fun .def_761 () Bool (or .def_738 .def_760))
(define-fun .def_755 () Bool (= call_mesi.ite24 call_mesi.ite23))
(define-fun .def_756 () Bool (or param_etat_me1 .def_755))
(define-fun .def_751 () Bool (= call_mesi.ite17 call_mesi.ite24))
(define-fun .def_752 () Bool (or .def_738 .def_751))
(define-fun .def_746 () Bool (= call_mesi.ite16 call_mesi.ite15))
(define-fun .def_747 () Bool (or param_etat_me1 .def_746))
(define-fun .def_742 () Bool (= call_mesi.ite9 call_mesi.ite16))
(define-fun .def_743 () Bool (or .def_738 .def_742))
(define-fun .def_737 () Bool (= call_mesi.ite call_mesi.ite8))
(define-fun .def_739 () Bool (or .def_737 .def_738))
(define-fun .def_734 () Bool (= call_mesi.ite8 call_mesi.ite7))
(define-fun .def_736 () Bool (or .def_734 param_etat_me1))
(define-fun .def_740 () Bool (and .def_736 .def_739))
(define-fun .def_744 () Bool (and .def_740 .def_743))
(define-fun .def_748 () Bool (and .def_744 .def_747))
(define-fun .def_753 () Bool (and .def_748 .def_752))
(define-fun .def_757 () Bool (and .def_753 .def_756))
(define-fun .def_762 () Bool (and .def_757 .def_761))
(define-fun .def_766 () Bool (and .def_762 .def_765))
(define-fun .def_730 () Bool (= env call_Sofar.Sofar))
(define-fun .def_727 () Bool (= invalid_me call_mesi.invalid_me))
(define-fun .def_723 () Bool (= shared_me call_mesi.shared_me))
(define-fun .def_719 () Bool (= exclusive_me call_mesi.exclusive_me))
(define-fun .def_715 () Bool (= modified_me call_mesi.modified_me))
(define-fun .def_709 () Bool (= call_mesi.ite29 call_mesi.ite30))
(define-fun .def_710 () Bool (or param_etat_me3 .def_709))
(define-fun .def_706 () Bool (= call_mesi.ite27 call_mesi.ite30))
(define-fun .def_687 () Bool (not param_etat_me3))
(define-fun .def_707 () Bool (or .def_687 .def_706))
(define-fun .def_701 () Bool (= call_mesi.ite21 call_mesi.ite22))
(define-fun .def_702 () Bool (or param_etat_me3 .def_701))
(define-fun .def_698 () Bool (= call_mesi.ite19 call_mesi.ite22))
(define-fun .def_699 () Bool (or .def_687 .def_698))
(define-fun .def_694 () Bool (= call_mesi.ite13 call_mesi.ite14))
(define-fun .def_695 () Bool (or param_etat_me3 .def_694))
(define-fun .def_691 () Bool (= call_mesi.ite11 call_mesi.ite14))
(define-fun .def_692 () Bool (or .def_687 .def_691))
(define-fun .def_686 () Bool (= call_mesi.ite3 call_mesi.ite6))
(define-fun .def_688 () Bool (or .def_686 .def_687))
(define-fun .def_683 () Bool (= call_mesi.ite5 call_mesi.ite6))
(define-fun .def_685 () Bool (or .def_683 param_etat_me3))
(define-fun .def_689 () Bool (and .def_685 .def_688))
(define-fun .def_693 () Bool (and .def_689 .def_692))
(define-fun .def_696 () Bool (and .def_693 .def_695))
(define-fun .def_700 () Bool (and .def_696 .def_699))
(define-fun .def_703 () Bool (and .def_700 .def_702))
(define-fun .def_708 () Bool (and .def_703 .def_707))
(define-fun .def_711 () Bool (and .def_708 .def_710))
(define-fun .def_679 () Bool (not env))
(define-fun .def_680 () Bool (or flby .def_679))
(define-fun .def_681 () Bool (= _OK_ .def_680))
(define-fun .def_712 () Bool (and .def_681 .def_711))
(define-fun .def_716 () Bool (and .def_712 .def_715))
(define-fun .def_720 () Bool (and .def_716 .def_719))
(define-fun .def_724 () Bool (and .def_720 .def_723))
(define-fun .def_728 () Bool (and .def_724 .def_727))
(define-fun .def_731 () Bool (and .def_728 .def_730))
(define-fun .def_767 () Bool (and .def_731 .def_766))
(define-fun .def_797 () Bool (and .def_767 .def_796))
(define-fun .def_799 () Bool (and .def_797 .def_798))
(define-fun .def_801 () Bool (and .def_799 .def_800))
(define-fun .def_803 () Bool (and .def_801 .def_802))
(define-fun .def_805 () Bool (and .def_803 .def_804))
(define-fun .def_819 () Bool (and .def_805 .def_818))
(define-fun .def_821 () Bool (and .def_819 .def_820))
(define-fun .def_1190 () Bool (and .def_821 .def_1189))
(define-fun .def_1056 () Bool (and call_Sofar.Sofar call_excludes4.excludes.next))
(define-fun .def_1058 () Bool (= .def_1056 call_Sofar.flby.next))
(define-fun .def_1053 () Bool (= call_mesi.ite32.next call_mesi.flby4.next))
(define-fun .def_1049 () Bool (= call_mesi.ite24.next call_mesi.flby3.next))
(define-fun .def_1045 () Bool (= call_mesi.ite16.next call_mesi.flby2.next))
(define-fun .def_1041 () Bool (= call_mesi.ite8.next call_mesi.flby.next))
(define-fun .def_1009 () Bool (<= 1 call_mesi.invalid_me))
(define-fun .def_1036 () Bool (= call_mesi.garde_me4.next .def_1009))
(define-fun .def_1033 () Bool (= call_mesi.ite20.next 0))
(define-fun .def_943 () Bool (not call_mesi.garde_me4.next))
(define-fun .def_1034 () Bool (or .def_943 .def_1033))
(define-fun .def_1030 () Bool (= call_mesi.ite4.next 0))
(define-fun .def_1031 () Bool (or .def_943 .def_1030))
(define-fun .def_1028 () Bool (= call_mesi.ite12.next 1))
(define-fun .def_1029 () Bool (or .def_943 .def_1028))
(define-fun .def_1032 () Bool (and .def_1029 .def_1031))
(define-fun .def_1035 () Bool (and .def_1032 .def_1034))
(define-fun .def_1037 () Bool (and .def_1035 .def_1036))
(define-fun .def_1024 () Bool (<= 1 call_mesi.shared_me))
(define-fun .def_1025 () Bool (= call_mesi.garde_me3.next .def_1024))
(define-fun .def_1021 () Bool (= call_mesi.ite19.next 0))
(define-fun .def_930 () Bool (not call_mesi.garde_me3.next))
(define-fun .def_1022 () Bool (or .def_930 .def_1021))
(define-fun .def_1018 () Bool (= call_mesi.ite3.next 0))
(define-fun .def_1019 () Bool (or .def_930 .def_1018))
(define-fun .def_1016 () Bool (= call_mesi.ite11.next 1))
(define-fun .def_1017 () Bool (or .def_930 .def_1016))
(define-fun .def_1020 () Bool (and .def_1017 .def_1019))
(define-fun .def_1023 () Bool (and .def_1020 .def_1022))
(define-fun .def_1026 () Bool (and .def_1023 .def_1025))
(define-fun .def_1013 () Bool (<= 1 call_mesi.exclusive_me))
(define-fun .def_1014 () Bool (= call_mesi.garde_me2.next .def_1013))
(define-fun .def_1010 () Bool (= call_mesi.garde_me1.next .def_1009))
(define-fun .def_1006 () Bool (= call_mesi.ite.next 0))
(define-fun .def_916 () Bool (not call_mesi.garde_me1.next))
(define-fun .def_1007 () Bool (or .def_916 .def_1006))
(define-fun .def_1004 () Bool (= call_mesi.ite9.next 0))
(define-fun .def_1005 () Bool (or .def_916 .def_1004))
(define-fun .def_1008 () Bool (and .def_1005 .def_1007))
(define-fun .def_1011 () Bool (and .def_1008 .def_1010))
(define-fun .def_1000 () Bool (= call_mesi.invalid_me call_mesi.ite28.next))
(define-fun .def_1001 () Bool (or call_mesi.garde_me4.next .def_1000))
(define-fun .def_997 () Bool (= call_mesi.invalid_me call_mesi.ite27.next))
(define-fun .def_998 () Bool (or call_mesi.garde_me3.next .def_997))
(define-fun .def_992 () Bool (= call_mesi.invalid_me call_mesi.ite26.next))
(define-fun .def_995 () Bool (or call_mesi.garde_me2.next .def_992))
(define-fun .def_887 () Bool (not call_mesi.garde_me2.next))
(define-fun .def_993 () Bool (or .def_887 .def_992))
(define-fun .def_986 () Int (* (- 1) call_mesi.ite25.next))
(define-fun .def_987 () Int (+ call_mesi.invalid_me .def_986))
(define-fun .def_988 () Bool (= .def_987 1))
(define-fun .def_989 () Bool (or .def_916 .def_988))
(define-fun .def_984 () Bool (= call_mesi.invalid_me call_mesi.ite25.next))
(define-fun .def_985 () Bool (or call_mesi.garde_me1.next .def_984))
(define-fun .def_990 () Bool (and .def_985 .def_989))
(define-fun .def_994 () Bool (and .def_990 .def_993))
(define-fun .def_996 () Bool (and .def_994 .def_995))
(define-fun .def_999 () Bool (and .def_996 .def_998))
(define-fun .def_1002 () Bool (and .def_999 .def_1001))
(define-fun .def_979 () Bool (= call_mesi.shared_me call_mesi.ite20.next))
(define-fun .def_980 () Bool (or call_mesi.garde_me4.next .def_979))
(define-fun .def_976 () Bool (= call_mesi.shared_me call_mesi.ite19.next))
(define-fun .def_977 () Bool (or call_mesi.garde_me3.next .def_976))
(define-fun .def_968 () Bool (= call_mesi.shared_me call_mesi.ite18.next))
(define-fun .def_973 () Bool (or call_mesi.garde_me2.next .def_968))
(define-fun .def_970 () Bool (= call_mesi.shared_me call_mesi.ite17.next))
(define-fun .def_971 () Bool (or call_mesi.garde_me1.next .def_970))
(define-fun .def_969 () Bool (or .def_887 .def_968))
(define-fun .def_972 () Bool (and .def_969 .def_971))
(define-fun .def_974 () Bool (and .def_972 .def_973))
(define-fun .def_978 () Bool (and .def_974 .def_977))
(define-fun .def_981 () Bool (and .def_978 .def_980))
(define-fun .def_963 () Bool (= call_mesi.exclusive_me call_mesi.ite12.next))
(define-fun .def_964 () Bool (or call_mesi.garde_me4.next .def_963))
(define-fun .def_960 () Bool (= call_mesi.exclusive_me call_mesi.ite11.next))
(define-fun .def_961 () Bool (or call_mesi.garde_me3.next .def_960))
(define-fun .def_956 () Bool (= call_mesi.exclusive_me call_mesi.ite10.next))
(define-fun .def_957 () Bool (or call_mesi.garde_me2.next .def_956))
(define-fun .def_953 () Bool (= call_mesi.exclusive_me call_mesi.ite9.next))
(define-fun .def_954 () Bool (or call_mesi.garde_me1.next .def_953))
(define-fun .def_948 () Int (* (- 1) call_mesi.ite10.next))
(define-fun .def_949 () Int (+ call_mesi.exclusive_me .def_948))
(define-fun .def_950 () Bool (= .def_949 1))
(define-fun .def_951 () Bool (or .def_887 .def_950))
(define-fun .def_955 () Bool (and .def_951 .def_954))
(define-fun .def_958 () Bool (and .def_955 .def_957))
(define-fun .def_962 () Bool (and .def_958 .def_961))
(define-fun .def_965 () Bool (and .def_962 .def_964))
(define-fun .def_933 () Int (* (- 1) call_mesi.ite28.next))
(define-fun .def_938 () Int (+ call_mesi.invalid_me .def_933))
(define-fun .def_939 () Int (+ call_mesi.shared_me .def_938))
(define-fun .def_940 () Int (+ call_mesi.exclusive_me .def_939))
(define-fun .def_941 () Int (+ call_mesi.modified_me .def_940))
(define-fun .def_942 () Bool (= .def_941 1))
(define-fun .def_944 () Bool (or .def_942 .def_943))
(define-fun .def_920 () Int (* (- 1) call_mesi.ite27.next))
(define-fun .def_925 () Int (+ call_mesi.invalid_me .def_920))
(define-fun .def_926 () Int (+ call_mesi.shared_me .def_925))
(define-fun .def_927 () Int (+ call_mesi.exclusive_me .def_926))
(define-fun .def_928 () Int (+ call_mesi.modified_me .def_927))
(define-fun .def_929 () Bool (= .def_928 1))
(define-fun .def_931 () Bool (or .def_929 .def_930))
(define-fun .def_907 () Int (* (- 1) call_mesi.ite17.next))
(define-fun .def_912 () Int (+ call_mesi.shared_me .def_907))
(define-fun .def_909 () Int (* (- 1) call_mesi.exclusive_me))
(define-fun .def_913 () Int (+ .def_909 .def_912))
(define-fun .def_914 () Int (+ call_mesi.modified_me .def_913))
(define-fun .def_915 () Bool (= .def_914 2))
(define-fun .def_917 () Bool (or .def_915 .def_916))
(define-fun .def_902 () Bool (= call_mesi.modified_me call_mesi.ite4.next))
(define-fun .def_904 () Bool (or .def_902 call_mesi.garde_me4.next))
(define-fun .def_898 () Bool (= call_mesi.modified_me call_mesi.ite3.next))
(define-fun .def_900 () Bool (or .def_898 call_mesi.garde_me3.next))
(define-fun .def_894 () Bool (= call_mesi.modified_me call_mesi.ite2.next))
(define-fun .def_895 () Bool (or call_mesi.garde_me2.next .def_894))
(define-fun .def_890 () Bool (= call_mesi.modified_me call_mesi.ite.next))
(define-fun .def_892 () Bool (or .def_890 call_mesi.garde_me1.next))
(define-fun .def_883 () Int (* (- 1) call_mesi.ite2.next))
(define-fun .def_884 () Int (+ call_mesi.modified_me .def_883))
(define-fun .def_885 () Bool (= .def_884 1))
(define-fun .def_888 () Bool (or .def_885 .def_887))
(define-fun .def_893 () Bool (and .def_888 .def_892))
(define-fun .def_896 () Bool (and .def_893 .def_895))
(define-fun .def_901 () Bool (and .def_896 .def_900))
(define-fun .def_905 () Bool (and .def_901 .def_904))
(define-fun .def_918 () Bool (and .def_905 .def_917))
(define-fun .def_932 () Bool (and .def_918 .def_931))
(define-fun .def_945 () Bool (and .def_932 .def_944))
(define-fun .def_878 () Bool (= call_mesi.invalid_me call_mesi.ite29.next))
(define-fun .def_879 () Bool (or param_etat_me4.next .def_878))
(define-fun .def_875 () Bool (= call_mesi.ite28.next call_mesi.ite29.next))
(define-fun .def_854 () Bool (not param_etat_me4.next))
(define-fun .def_876 () Bool (or .def_854 .def_875))
(define-fun .def_870 () Bool (= call_mesi.shared_me call_mesi.ite21.next))
(define-fun .def_871 () Bool (or param_etat_me4.next .def_870))
(define-fun .def_867 () Bool (= call_mesi.ite20.next call_mesi.ite21.next))
(define-fun .def_868 () Bool (or .def_854 .def_867))
(define-fun .def_862 () Bool (= call_mesi.exclusive_me call_mesi.ite13.next))
(define-fun .def_863 () Bool (or param_etat_me4.next .def_862))
(define-fun .def_859 () Bool (= call_mesi.ite12.next call_mesi.ite13.next))
(define-fun .def_860 () Bool (or .def_854 .def_859))
(define-fun .def_853 () Bool (= call_mesi.ite5.next call_mesi.ite4.next))
(define-fun .def_855 () Bool (or .def_853 .def_854))
(define-fun .def_849 () Bool (= call_mesi.modified_me call_mesi.ite5.next))
(define-fun .def_851 () Bool (or .def_849 param_etat_me4.next))
(define-fun .def_856 () Bool (and .def_851 .def_855))
(define-fun .def_861 () Bool (and .def_856 .def_860))
(define-fun .def_864 () Bool (and .def_861 .def_863))
(define-fun .def_869 () Bool (and .def_864 .def_868))
(define-fun .def_872 () Bool (and .def_869 .def_871))
(define-fun .def_877 () Bool (and .def_872 .def_876))
(define-fun .def_880 () Bool (and .def_877 .def_879))
(define-fun .def_832 () Int (* (- 1) invalid_me.next))
(define-fun .def_829 () Int (* (- 1) shared_me.next))
(define-fun .def_838 () Int (+ .def_829 .def_832))
(define-fun .def_826 () Int (* (- 1) exclusive_me.next))
(define-fun .def_839 () Int (+ .def_826 .def_838))
(define-fun .def_824 () Int (* (- 1) modified_me.next))
(define-fun .def_840 () Int (+ .def_824 .def_839))
(define-fun .def_841 () Int (+ invalid_me .def_840))
(define-fun .def_842 () Int (+ shared_me .def_841))
(define-fun .def_843 () Int (+ exclusive_me .def_842))
(define-fun .def_844 () Int (+ modified_me .def_843))
(define-fun .def_845 () Bool (= .def_844 0))
(define-fun .def_847 () Bool (= .def_845 flby.next))
(define-fun .def_881 () Bool (and .def_847 .def_880))
(define-fun .def_946 () Bool (and .def_881 .def_945))
(define-fun .def_966 () Bool (and .def_946 .def_965))
(define-fun .def_982 () Bool (and .def_966 .def_981))
(define-fun .def_1003 () Bool (and .def_982 .def_1002))
(define-fun .def_1012 () Bool (and .def_1003 .def_1011))
(define-fun .def_1015 () Bool (and .def_1012 .def_1014))
(define-fun .def_1027 () Bool (and .def_1015 .def_1026))
(define-fun .def_1038 () Bool (and .def_1027 .def_1037))
(define-fun .def_1042 () Bool (and .def_1038 .def_1041))
(define-fun .def_1046 () Bool (and .def_1042 .def_1045))
(define-fun .def_1050 () Bool (and .def_1046 .def_1049))
(define-fun .def_1054 () Bool (and .def_1050 .def_1053))
(define-fun .def_1059 () Bool (and .def_1054 .def_1058))
(define-fun .def_1191 () Bool (and .def_1059 .def_1190))
(assert .def_1191)
